200,161
635,264
573,193
654,491
704,554
910,721
847,919
695,494
699,463
814,338
1020,160
923,230
880,342
787,352
672,378
639,364
563,388
540,600
491,780
893,618
1051,526
1125,476
1161,406
311,286
168,240
474,374
639,140
681,106
727,264
